NAME: TSP_results/pr76_2.tour
COMMENT: Tour length 108159, time 103.76 seconds
TYPE: TOUR
DIMENSION: 76
TOUR_SECTION
1
61
23
60
22
41
25
33
24
34
27
35
44
36
47
32
45
38
46
39
26
40
21
59
29
57
3
71
20
55
19
51
6
65
8
66
9
52
10
53
12
50
74
49
13
67
15
68
17
69
18
48
37
28
16
70
11
43
14
42
7
54
5
56
31
72
4
73
30
64
2
63
75
58
76
62
-1
EOF
